(set-info :smt-lib-version 2.6)
(set-logic QF_UFNIA)
(set-info :source |
Generated by: Geoff Sutcliffe
Generated on: 2026-03-11
Generator: TPTPWorld
Application: Benchmarking automated theorem provers
Time limit: 120.0

These benchmarks are translations from the TPTP Library (Thousands of
Problems for Theorem Provers), see http://www.cs.miami.edu/~tptp/

The TPTP is maintained by Geoff Sutcliffe, and he contributed this
selection of benchmarks to SMT-LIB.  They were exported from the
v9.2.1 realease of TPTP.
|)
(set-info :category "industrial")
(set-info :status "unknown")
; SZS status Success
(declare-sort $$unsorted 0)
(declare-fun tptp.a () Int)
(declare-fun tptp.b () Int)
(declare-fun tptp.c () Int)
(assert (let ((_let_1 (+ (+ (+ tptp.a tptp.b) tptp.c) 1))) (= (* (* (* _let_1 _let_1) _let_1) _let_1) 0)))
(assert (let ((_let_1 (* tptp.c tptp.c))) (let ((_let_2 (* _let_1 tptp.c))) (let ((_let_3 (* _let_1 tptp.b))) (let ((_let_4 (* _let_1 tptp.a))) (let ((_let_5 (* tptp.c tptp.b))) (let ((_let_6 (* _let_5 tptp.b))) (let ((_let_7 (* _let_5 tptp.a))) (let ((_let_8 (* tptp.c tptp.a))) (let ((_let_9 (* _let_8 tptp.a))) (let ((_let_10 (* tptp.b tptp.b))) (let ((_let_11 (* _let_10 tptp.b))) (let ((_let_12 (* _let_10 tptp.a))) (let ((_let_13 (* tptp.b tptp.a))) (let ((_let_14 (* _let_13 tptp.a))) (let ((_let_15 (* tptp.a tptp.a))) (let ((_let_16 (* _let_15 tptp.a))) (not (= (+ (* _let_2 tptp.c) (* (- 1) (+ (+ (+ (+ (+ (+ (+ (+ (+ (+ (+ (+ (+ (+ (+ (+ (+ (+ (- (+ (+ (+ (+ (+ (+ (+ (+ (+ (- (+ (+ (+ (- (* (- 1) 1) (* 4 tptp.a)) (* (- 6) _let_15)) (* (- 4) _let_16)) (* (- 1) (* _let_16 tptp.a))) (* 4 tptp.b)) (* (- 12) _let_13)) (* (- 6) _let_10)) (* (- 12) _let_14)) (* (- 12) _let_12)) (* (- 4) _let_11)) (* (- 4) (* _let_14 tptp.a))) (* (- 6) (* _let_12 tptp.a))) (* (- 4) (* _let_11 tptp.a))) (* (- 1) (* _let_11 tptp.b))) (* 4 tptp.c)) (* (- 12) _let_8)) (* (- 12) _let_5)) (* (- 6) _let_1)) (* (- 12) _let_9)) (* (- 24) _let_7)) (* (- 12) _let_6)) (* (- 12) _let_4)) (* (- 12) _let_3)) (* (- 4) _let_2)) (* (- 4) (* _let_9 tptp.a))) (* (- 12) (* _let_7 tptp.a))) (* (- 12) (* _let_6 tptp.a))) (* (- 4) (* _let_6 tptp.b))) (* (- 6) (* _let_4 tptp.a))) (* (- 12) (* _let_3 tptp.a))) (* (- 6) (* _let_3 tptp.b))) (* (- 4) (* _let_2 tptp.a))) (* (- 4) (* _let_2 tptp.b))))) 0)))))))))))))))))))
(check-sat)
